1675025
65,10,63,66,37,20,62,15,35,67,34,50,61,38,36,52,7,14,57,8,16,26,44,64,46,23,60,2,41,55,31,39,4,28,24,5,29,40,59,22,48,18,11,0,53,12,19,3,47,1,58,27,49,43,9,17,56,32,51,13,30,21,42,6,33,45,54,25
